VALUE 408
20 64
20 21
21 22
22 23
43 44
44 45
45 46
46 47
47 48
48 49
49 50
50 51
51 52
52 53
53 54
54 55
55 56
56 57
57 58
58 99
60 61
61 62
62 63
63 64
99 100
100 101
101 102
102 103
60 103
103 143
143 180
180 216
216 217
217 218
218 219
219 220
220 221
221 222
222 223
228 268
228 229
229 230
230 231
231 232
232 233
233 234
234 235
259 260
222 260
260 261
264 306
264 265
265 266
266 267
267 268
235 273
273 274
274 275
261 301
301 302
302 303
303 304
304 305
305 306

